(set-logic HORN)
(declare-fun inv ((_ BitVec 32) (_ BitVec 32) (_ BitVec 32) (_ BitVec 32) ) Bool)
(assert (forall ((i (_ BitVec 32)) (j (_ BitVec 32)) (n (_ BitVec 32)) (sn (_ BitVec 32))) 
       (=> ( and ( = j (_ bv10 32) ) ( = i (_ bv1 32) ) ( = sn (_ bv0 32) ) ( bvuge n (_ bv0 32) ) ) (inv i j n sn))))
(assert (forall ((i (_ BitVec 32)) (j (_ BitVec 32)) (n (_ BitVec 32)) (sn (_ BitVec 32)) (i! (_ BitVec 32)) (j! (_ BitVec 32)) (n! (_ BitVec 32)) (sn! (_ BitVec 32))) 
       (=> (and (inv i j n sn) ( and ( bvule i n ) ( ite ( bvult i j ) ( = sn! ( bvadd sn (_ bv2 32) ) ) ( = sn! sn ) ) ( = j! ( bvsub j (_ bv1 32) ) ) ( = i! ( bvadd i (_ bv1 32) ) ) ( = n! n ) )) (inv i! j! n! sn!))))
(assert (forall ((i (_ BitVec 32)) (j (_ BitVec 32)) (n (_ BitVec 32)) (sn (_ BitVec 32))) 
       (=> (inv i j n sn) ( or ( bvule i n ) ( = sn ( bvmul n (_ bv2 32) ) ) ( = sn (_ bv0 32) ) ))))
(check-sat)
